language ESSENCE' 1.0
letting actionFrom be [0, 2, 3, 3, 3, 2, 3, 2, 3, 3, 0, 3, 2, 3, 2, 3, 2, 3, 3, 2]
letting actionTo be [2, 3, 2, 2, 2, 1, 2, 3, 2, 2, 2, 2, 1, 2, 1, 2, 1, 2, 2, 1]
letting actionTypes be [1, 4, 8, 9, 5, 2, 5, 4, 6, 7, 1, 5, 2, 8, 2, 5, 2, 5, 5, 2]
letting pointers be [[0, 1, 1, 1, 1, 1, 1, 1, 1, 1, 1, 2, 2, 2, 2, 2, 2, 2, 2, 2, 2;int(0..20)], 
[0, 0, 0, 0, 0, 0, 1, 1, 1, 1, 1, 1, 1, 2, 2, 3, 3, 4, 4, 4, 5;int(0..20)];int(0..1)]
letting statePlaces be [[-1, 4, 4, 3, 9, 12, 12, 15, 15, 0, 16, 8, 24, 24, 15, 15, 30, 30, 45, 60, 60;int(0..20)], 
[-1, -1, 4, 3, 3, 3, 3, 3, 15, 15, 16, 16, 16, 16, 15, 15, 15, 15, 15, 15, 15;int(0..20)];int(2..3)]
